p cnf 25 142
c One vertex at each position
1 6 11 16 21 0
2 7 12 17 22 0
3 8 13 18 23 0
4 9 14 19 24 0
5 10 15 20 25 0
c Every vertex visited max once
-1 -2 0
-1 -3 0
-1 -4 0
-1 -5 0
-2 -3 0
-2 -4 0
-2 -5 0
-3 -4 0
-3 -5 0
-4 -5 0
-6 -7 0
-6 -8 0
-6 -9 0
-6 -10 0
-7 -8 0
-7 -9 0
-7 -10 0
-8 -9 0
-8 -10 0
-9 -10 0
-11 -12 0
-11 -13 0
-11 -14 0
-11 -15 0
-12 -13 0
-12 -14 0
-12 -15 0
-13 -14 0
-13 -15 0
-14 -15 0
-16 -17 0
-16 -18 0
-16 -19 0
-16 -20 0
-17 -18 0
-17 -19 0
-17 -20 0
-18 -19 0
-18 -20 0
-19 -20 0
-21 -22 0
-21 -23 0
-21 -24 0
-21 -25 0
-22 -23 0
-22 -24 0
-22 -25 0
-23 -24 0
-23 -25 0
-24 -25 0
c Every vertex visited at least once
1 2 3 4 5 0
6 7 8 9 10 0
11 12 13 14 15 0
16 17 18 19 20 0
21 22 23 24 25 0
c Max one vertex at each position
-1 -6 0
-1 -11 0
-1 -16 0
-1 -21 0
-6 -11 0
-6 -16 0
-6 -21 0
-11 -16 0
-11 -21 0
-16 -21 0
-2 -7 0
-2 -12 0
-2 -17 0
-2 -22 0
-7 -12 0
-7 -17 0
-7 -22 0
-12 -17 0
-12 -22 0
-17 -22 0
-3 -8 0
-3 -13 0
-3 -18 0
-3 -23 0
-8 -13 0
-8 -18 0
-8 -23 0
-13 -18 0
-13 -23 0
-18 -23 0
-4 -9 0
-4 -14 0
-4 -19 0
-4 -24 0
-9 -14 0
-9 -19 0
-9 -24 0
-14 -19 0
-14 -24 0
-19 -24 0
-5 -10 0
-5 -15 0
-5 -20 0
-5 -25 0
-10 -15 0
-10 -20 0
-10 -25 0
-15 -20 0
-15 -25 0
-20 -25 0
c Path consist only of valid edges
-6 -12 0
-7 -13 0
-8 -14 0
-9 -15 0
-6 -22 0
-7 -23 0
-8 -24 0
-9 -25 0
-11 -2 0
-12 -3 0
-13 -4 0
-14 -5 0
-11 -17 0
-12 -18 0
-13 -19 0
-14 -20 0
-16 -2 0
-17 -3 0
-18 -4 0
-19 -5 0
-16 -22 0
-17 -23 0
-18 -24 0
-19 -25 0
-21 -2 0
-22 -3 0
-23 -4 0
-24 -5 0
-21 -12 0
-22 -13 0
-23 -14 0
-24 -15 0
